
--- Job immun.gms Start 02/29/12 12:32:30 WIN-VS8 23.4.3 x86/MS Windows        
GAMS Rev 234  Copyright (C) 1987-2010 GAMS Development. All rights reserved
Licensee: Matt Mowers                                    G100419:1834CP-WIN
          National Renewable Energy Laboratory (NREL)                DC8246
--- Starting compilation
--- immun.gms(359) 3 Mb
--- Starting execution: elapsed 0:00:00.033
--- immun.gms(166) 4 Mb
--- Generating LP model immun1
--- immun.gms(203) 4 Mb
---   3 rows  9 columns  25 non-zeroes
--- Executing CPLEX: elapsed 0:00:00.080

IBM ILOG CPLEX   May 24, 2010 23.4.3 WIN 17710.17719 VS8 x86/MS Windows
Cplex 12.1.0, GAMS Link 34 

Reading data...
Starting Cplex...
Tried aggregator 1 time.
LP Presolve eliminated 1 rows and 1 columns.
Reduced LP has 2 rows, 8 columns, and 16 nonzeros.
Presolve time =    0.02 sec.

Iteration      Dual Objective            In Variable           Out Variable
     1            -904.886980              x(bond-1)              pvm artif
     2          -24493.226597              x(bond-3)              ddm artif
LP status(1): optimal

Optimal solution found.
Objective :      -24493.226597

--- Restarting execution
--- immun.gms(203) 0 Mb
--- Reading solution for model immun1
--- Executing after solve: elapsed 0:00:00.755
--- Generating LP model immun2
--- immun.gms(205) 3 Mb
---   3 rows  9 columns  25 non-zeroes
--- Executing CPLEX: elapsed 0:00:00.769

IBM ILOG CPLEX   May 24, 2010 23.4.3 WIN 17710.17719 VS8 x86/MS Windows
Cplex 12.1.0, GAMS Link 34 

Reading data...
Starting Cplex...
Tried aggregator 1 time.
LP Presolve eliminated 1 rows and 1 columns.
Reduced LP has 2 rows, 8 columns, and 16 nonzeros.
Presolve time =    0.00 sec.

Iteration      Dual Objective            In Variable           Out Variable
     1 sI            0.000000              x(bond-3)              pvm artif
     2            7197.760305              x(bond-1)              ddm artif
LP status(1): optimal

Optimal solution found.
Objective :        7197.760305

--- Restarting execution
--- immun.gms(205) 0 Mb
--- Reading solution for model immun2
--- Executing after solve: elapsed 0:00:01.023
--- Generating LP model immun3
--- immun.gms(207) 3 Mb
---   4 rows  9 columns  33 non-zeroes
--- Executing CPLEX: elapsed 0:00:01.070

IBM ILOG CPLEX   May 24, 2010 23.4.3 WIN 17710.17719 VS8 x86/MS Windows
Cplex 12.1.0, GAMS Link 34 

Reading data...
Starting Cplex...
Tried aggregator 1 time.
LP Presolve eliminated 1 rows and 1 columns.
Reduced LP has 3 rows, 8 columns, and 24 nonzeros.
Presolve time =    0.00 sec.

Iteration      Dual Objective            In Variable           Out Variable
     1 sI            0.000000              x(bond-2)              pvm artif
     2          641283.859859              x(bond-1)              ddm artif
     3          884940.015135              x(bond-3)              x(bond-2)
LP status(1): optimal

Optimal solution found.
Objective :      884940.015135

--- Restarting execution
--- immun.gms(207) 0 Mb
--- Reading solution for model immun3
--- Executing after solve: elapsed 0:00:01.209
--- immun.gms(284) 3 Mb
--- Generating LP model factor1
--- immun.gms(286) 3 Mb
---   5 rows  9 columns  41 non-zeroes
--- Executing CPLEX: elapsed 0:00:01.224

IBM ILOG CPLEX   May 24, 2010 23.4.3 WIN 17710.17719 VS8 x86/MS Windows
Cplex 12.1.0, GAMS Link 34 

Reading data...
Starting Cplex...
Tried aggregator 1 time.
LP Presolve eliminated 1 rows and 1 columns.
Reduced LP has 4 rows, 8 columns, and 32 nonzeros.
Presolve time =    0.00 sec.

Iteration      Dual Objective            In Variable           Out Variable
     1            -904.886980                            2          -19977.072116              x(bond-3)         fm(tilt) artif
     3          -25627.277254              x(bond-6)        fm(curve) artif
     4          -28601.209796              x(bond-7)        fm(shift) artif
     5          -32482.367172              x(bond-8)              x(bond-6)
LP status(3): infeasible
Dual infeasible or unbounded. Switching to primal to aid diagnosis.
Tried aggregator 1 time.
LP Presolve eliminated 1 rows and 1 columns.
Reduced LP has 4 rows, 8 columns, and 32 nonzeros.
Presolve time =    0.00 sec.

Iteration           Objective            In Variable           Out Variable
     1 sI          231.534308              x(bond-8)         fm(tilt) artif
     2 sI           40.214220              x(bond-3)        fm(curve) artif
     3 sI            2.297641              x(bond-2)              pvm artif
     4 sI            2.297548              x(bond-1)              x(bond-2)
LP status(3): infeasible

Model has been proven infeasible.
--- Restarting execution
--- immun.gms(286) 0 Mb
--- Reading solution for model factor1
--- Executing after solve: elapsed 0:00:01.489
--- Generating LP model factor2
--- immun.gms(287) 3 Mb
---   5 rows  12 columns  47 non-zeroes
--- Executing CPLEX: elapsed 0:00:01.503

IBM ILOG CPLEX   May 24, 2010 23.4.3 WIN 17710.17719 VS8 x86/MS Windows
Cplex 12.1.0, GAMS Link 34 

Reading data...
Starting Cplex...
Tried aggregator 1 time.
LP Presolve eliminated 1 rows and 1 columns.
Reduced LP has 4 rows, 11 columns, and 35 nonzeros.
Presolve time =    0.00 sec.

Iteration      Dual Objective            In Variable           Out Variable
     1            -904.886980              x(bond-1)              pvm artif
     2          -19977.072116              x(bond-3)      diffm(tilt) artif
     3          -25053.904622             dif(curve)     diffm(curve) artif
     4          -25540.682739              x(bond-6)     diffm(shift) artif
LP status(1): optimal

Optimal solution found.
Objective :      -25540.682739

--- Restarting execution
--- immun.gms(287) 0 Mb
--- Reading solution for model factor2
--- Executing after solve: elapsed 0:00:01.652
--- immun.gms(310) 3 Mb
--- Generating LP model dedic
--- immun.gms(322) 3 Mb
---   7 rows  21 columns  58 non-zeroes
--- Executing CPLEX: elapsed 0:00:01.689

IBM ILOG CPLEX   May 24, 2010 23.4.3 WIN 17710.17719 VS8 x86/MS Windows
Cplex 12.1.0, GAMS Link 34 

Reading data...
Starting Cplex...
Tried aggregator 1 time.
LP Presolve eliminated 2 rows and 12 columns.
Reduced LP has 5 rows, 9 columns, and 28 nonzeros.
Presolve time =    0.00 sec.
Initializing dual steep norms . . .

Iteration      Dual Objective            In Variable           Out Variable
     1          126523.089424              x(bond-2)        cbal(tl1) artif
     2          192046.447621              x(bond-5)        cbal(tl5) slack
     3          193074.473249              x(bond-3)                 s(tl4)
LP status(1): optimal

Optimal solution found.
Objective :      193074.473249

--- Restarting execution
--- immun.gms(322) 0 Mb
--- Reading solution for model dedic
--- Executing after solve: elapsed 0:00:01.811
--- immun.gms(326) 3 Mb
--- Generating LP model comb1
--- immun.gms(337) 3 Mb
---   8 rows  21 columns  67 non-zeroes
--- Executing CPLEX: elapsed 0:00:01.825

IBM ILOG CPLEX   May 24, 2010 23.4.3 WIN 17710.17719 VS8 x86/MS Windows
Cplex 12.1.0, GAMS Link 34 

Reading data...
Starting Cplex...
Tried aggregator 1 time.
LP Presolve eliminated 3 rows and 10 columns.
Reduced LP has 5 rows, 11 columns, and 40 nonzeros.
Presolve time =    0.00 sec.

Iteration      Dual Objective            In Variable           Out Variable
     1          237566.854954              x(bond-6)        cbal(tl1) artif
LP status(1): optimal

Optimal solution found.
Objective :      237566.854954

--- Restarting execution
--- immun.gms(337) 0 Mb
--- Reading solution for model comb1
--- Executing after solve: elapsed 0:00:01.956
--- Generating LP model comb2
--- immun.gms(338) 3 Mb
---   8 rows  21 columns  66 non-zeroes
--- Executing CPLEX: elapsed 0:00:01.969

IBM ILOG CPLEX   May 24, 2010 23.4.3 WIN 17710.17719 VS8 x86/MS Windows
Cplex 12.1.0, GAMS Link 34 

Reading data...
Starting Cplex...
Tried aggregator 1 time.
LP Presolve eliminated 3 rows and 10 columns.
Reduced LP has 5 rows, 11 columns, and 40 nonzeros.
Presolve time =    0.00 sec.
Using devex.
LP status(1): optimal

Optimal solution found.
Objective :      216798.496214

--- Restarting execution
--- immun.gms(338) 0 Mb
--- Reading solution for model comb2
--- Executing after solve: elapsed 0:00:02.086
--- immun.gms(339) 3 Mb
--- Generating LP model comb3
--- immun.gms(340) 3 Mb
---   10 rows  21 columns  82 non-zeroes
--- Executing CPLEX: elapsed 0:00:02.100

IBM ILOG CPLEX   May 24, 2010 23.4.3 WIN 17710.17719 VS8 x86/MS Windows
Cplex 12.1.0, GAMS Link 34 

Reading data...
Starting Cplex...
Tried aggregator 1 time.
LP Presolve eliminated 3 rows and 10 columns.
Reduced LP has 7 rows, 11 columns, and 56 nonzeros.
Presolve time =    0.00 sec.

Iteration      Dual Objective            In Variable           Out Variable
     1 sI            0.690090              x(bond-8)        fm(curve) artif
     2 sI            0.478284              x(bond-3)        cbal(tl2) artif
     3 sI            0.046063                 s(tl2)        cbal(tl3) artif
     4 sI            0.000000              x(bond-2)        cbal(tl1) artif
     5          224761.983472                 s(tl1)        cbal(tl4) slack
     6          230468.775338              x(bond-5)        fm(shift) artif
     7          252031.968947        cbal(tl4) slack         fm(tilt) artif
     8          389404.109987              x(bond-1)              x(bond-5)
     9         1089285.306945                 s(tl3)              x(bond-2)
LP status(1): optimal

Optimal solution found.
Objective :     1089285.306945

--- Restarting execution
--- immun.gms(340) 0 Mb
--- Reading solution for model comb3
--- Executing after solve: elapsed 0:00:02.428
--- immun.gms(348) 3 Mb
--- Generating QCP model sigma
--- immun.gms(359) 5 Mb
---   8 rows  22 columns  64 non-zeroes
---   44 nl-code  6 nl-non-zeroes
--- immun.gms(359) 3 Mb
--- Qmaker Time=16ms
--- Executing CPLEX: elapsed 0:00:02.535

IBM ILOG CPLEX   May 24, 2010 23.4.3 WIN 17710.17719 VS8 x86/MS Windows
Cplex 12.1.0, GAMS Link 34 

Reading data...
Starting Cplex...
Tried aggregator 1 time.
QP Presolve eliminated 2 rows and 5 columns.
Reduced QP has 6 rows, 17 columns, and 52 nonzeros.
Reduced QP objective Q matrix has 5 nonzeros.
Presolve time =    0.03 sec.
Parallel mode: none, using 1 thread for barrier
Number of nonzeros in lower triangle of A*A' = 15
Using Approximate Minimum Degree ordering
Total time for automatic ordering = 0.00 sec.
Summary statistics for Cholesky factor:
  Rows in Factor            = 6
  Integer space required    = 6
  Total non-zeros in factor = 21
  Total FP ops to factor    = 91
 Itn      Primal Obj        Dual Obj  Prim Inf Upper Inf  Dual Inf          
   0  2.5691387e+012 -2.8158766e+012 1.06e+004 0.00e+000 5.19e+009
   1  1.6014278e+011 -2.4734467e+011 2.22e+003 0.00e+000 1.14e+009
   2  1.1677476e+010 -3.5843100e+010 3.72e+002 0.00e+000 1.90e+008
   3  9.0187023e+008 -8.1321668e+009 6.70e+001 0.00e+000 3.42e+007
   4  4.2901119e+006 -3.8880502e+008 1.19e+000 0.00e+000 6.09e+005
   5  1.7562962e+002 -2.3314447e+006 6.08e-003 0.00e+000 3.10e+003
   6  4.3907166e-003 -1.1656492e+004 3.04e-005 0.00e+000 1.55e+001
   7  0.0000000e+000 -5.8282436e+001 1.52e-007 0.00e+000 7.76e-002
   8  0.0000000e+000 -2.9141235e-001 7.62e-010 0.00e+000 3.88e-004
   9  0.0000000e+000 -3.5953522e-002 6.93e-011 0.00e+000 3.64e-005
  10  0.0000000e+000 -6.0787201e-003 8.88e-012 0.00e+000 5.45e-006
  11  0.0000000e+000 -6.8855286e-004 2.06e-012 0.00e+000 4.13e-007

Warning:  Barrier optimality criterion affected by large objective shift.
QP status(1): 

Optimal solution found.
Objective :           0.000000

--- Restarting execution
--- immun.gms(359) 0 Mb
--- Reading solution for model sigma
*** Status: Normal completion
--- Job immun.gms Stop 02/29/12 12:32:33 elapsed 0:00:02.803
